17	4
20	34	29	31	
0	0	0	0	0	3	2	3	4	
6	2	0	8	5	2	5	15	
8	2	10	3	0	3	6	9	11	
7	2	0	4	2	2	7	17	
4	1	3	2	9	2	8	10	
100	0	0	7	0	3	8	17	17	
200	7	0	3	3	2	8	9	
250	5	10	8	8	1	17	
250	5	0	0	4	3	12	13	14	
100	9	9	10	8	3	12	17	17	
225	0	10	8	2	2	16	17	
75	1	7	9	2	2	17	17	
9	7	1	9	9	2	17	17	
8	3	0	4	0	1	17	
7	0	10	0	10	1	17	
1	0	1	9	4	2	17	17	
0	0	0	0	0	0	
